(declare-fun a_ack!48 () (_ BitVec 32))
(declare-fun b_ack!47 () (_ BitVec 64))
(declare-fun FPCHECK_FMUL_ACCURACY
             ((_ FloatingPoint 11 53) (_ FloatingPoint 11 53))
             Bool)
(assert (not (bvslt a_ack!48 #x00000000)))
(assert (not (= #x00000000 a_ack!48)))
(assert (not (= #x00000001 a_ack!48)))
(assert (let ((a!1 (fp.gt (fp.abs (fp.mul roundNearestTiesToEven
                                  ((_ to_fp 11 53) #x4000000000000000)
                                  ((_ to_fp 11 53) b_ack!47)))
                  ((_ to_fp 11 53) #x3ff0000000000000))))
  (not a!1)))
(assert (bvslt #x00000001 a_ack!48))
(assert (let ((a!1 (fp.gt (fp.abs (fp.mul roundNearestTiesToEven
                                  ((_ to_fp 11 53) #x4000000000000000)
                                  ((_ to_fp 11 53) b_ack!47)))
                  ((_ to_fp 11 53) #x7fefffffffffffff))))
  (not a!1)))
(assert (FPCHECK_FMUL_ACCURACY
  (fp.mul roundNearestTiesToEven
          ((_ to_fp 11 53) #x4000000000000000)
          ((_ to_fp 11 53) b_ack!47))
  (fp.mul roundNearestTiesToEven
          ((_ to_fp 11 53) #x4000000000000000)
          ((_ to_fp 11 53) b_ack!47))))

(check-sat)
(exit)
